Cars = 1..200;
Options = 1..5;
Classes = 1..21;
sequenceMinCapacity = [0, 0, 0, 0, 0];
sequenceMaxCapacity = [1, 2, 1, 2, 1];
sequenceSize = [2, 3, 3, 5, 5];
numOrdered = [1, 1, 46, 4, 9, 63, 4, 13, 2, 2, 11, 4, 1, 1, 17, 9, 1, 1, 1, 4, 5];
classHasOption = [| true,  true, false,  true, false
                  |false, false, false,  true,  true
                  |false, false, false,  true, false
                  | true, false, false,  true, false
                  | true,  true, false, false, false
                  |false,  true, false, false, false
                  |false, false,  true,  true, false
                  |false, false, false, false,  true
                  | true,  true,  true, false, false
                  | true, false,  true, false, false
                  |false,  true, false,  true, false
                  | true, false, false, false,  true
                  | true, false,  true,  true, false
                  |false,  true,  true, false,  true
                  | true, false, false, false, false
                  |false, false,  true, false, false
                  | true,  true,  true,  true, false
                  | true,  true,  true, false,  true
                  |false,  true,  true,  true, false
                  |false,  true,  true, false, false
                  |false,  true, false, false,  true|];
optionOrdering = [4, 5, 2, 1, 3];
